
Gurobi 10.0.1 (win64) logging started Thu Oct  5 12:31:42 2023

Set parameter LogFile to value "./results//log/BA_07_makespan_heurTrue.log"
Gurobi Optimizer version 10.0.1 build v10.0.1rc0 (win64)

CPU model: AMD Ryzen 7 3700X 8-Core Processor, instruction set [SSE2|AVX|AVX2]
Thread count: 8 physical cores, 16 logical processors, using up to 16 threads

Optimize a model with 134 rows, 118 columns and 477 nonzeros
Model fingerprint: 0xa2a800d1
Variable types: 0 continuous, 118 integer (99 binary)
Coefficient statistics:
  Matrix range     [1e+00, 1e+07]
  Objective range  [1e+00, 1e+00]
  Bounds range     [1e+00, 1e+00]
  RHS range        [1e+00, 3e+07]

User MIP start did not produce a new incumbent solution
User MIP start violates constraint initial_start_time_job1_stage0_machine4_constraint by 1.000000000

Found heuristic solution: objective 70.0000000
Presolve removed 28 rows and 65 columns
Presolve time: 0.00s
Presolved: 106 rows, 53 columns, 420 nonzeros
Variable types: 0 continuous, 53 integer (35 binary)

Root relaxation: objective 2.900000e+01, 19 iterations, 0.00 seconds (0.00 work units)

    Nodes    |    Current Node    |     Objective Bounds      |     Work
 Expl Unexpl |  Obj  Depth IntInf | Incumbent    BestBd   Gap | It/Node Time

     0     0   29.00000    0    8   70.00000   29.00000  58.6%     -    0s
H    0     0                      61.0000000   29.00000  52.5%     -    0s
H    0     0                      49.0000000   29.00000  40.8%     -    0s
H    0     0                      46.0000000   30.00000  34.8%     -    0s
H    0     0                      45.0000000   30.00000  33.3%     -    0s
     0     0   30.00000    0    3   45.00000   30.00000  33.3%     -    0s
     0     0   30.00000    0   12   45.00000   30.00000  33.3%     -    0s
     0     0   30.00000    0   11   45.00000   30.00000  33.3%     -    0s
     0     0   30.00000    0    9   45.00000   30.00000  33.3%     -    0s
     0     0   30.20312    0   24   45.00000   30.20312  32.9%     -    0s
     0     0   30.20312    0   24   45.00000   30.20312  32.9%     -    0s
     0     0   30.40625    0   23   45.00000   30.40625  32.4%     -    0s
     0     0   30.67393    0   21   45.00000   30.67393  31.8%     -    0s
     0     0   30.67393    0   23   45.00000   30.67393  31.8%     -    0s
     0     0   30.74051    0   22   45.00000   30.74051  31.7%     -    0s
     0     0   30.80598    0   25   45.00000   30.80598  31.5%     -    0s
     0     0   30.80598    0   25   45.00000   30.80598  31.5%     -    0s
     0     0   30.83504    0   25   45.00000   30.83504  31.5%     -    0s
     0     0   30.84259    0   24   45.00000   30.84259  31.5%     -    0s
     0     0   30.84259    0   21   45.00000   30.84259  31.5%     -    0s
     0     0   30.84259    0   23   45.00000   30.84259  31.5%     -    0s
     0     0   30.84259    0   26   45.00000   30.84259  31.5%     -    0s
     0     0   30.84259    0   26   45.00000   30.84259  31.5%     -    0s
     0     0   30.84259    0   27   45.00000   30.84259  31.5%     -    0s
     0     0   30.97668    0   29   45.00000   30.97668  31.2%     -    0s
     0     0   30.97668    0   29   45.00000   30.97668  31.2%     -    0s
     0     0   31.00054    0   29   45.00000   31.00054  31.1%     -    0s
     0     0   31.00054    0   29   45.00000   31.00054  31.1%     -    0s
     0     0   31.00054    0   29   45.00000   31.00054  31.1%     -    0s
     0     0   31.00054    0   29   45.00000   31.00054  31.1%     -    0s
     0     0   31.00054    0   29   45.00000   31.00054  31.1%     -    0s
     0     0   31.00054    0   29   45.00000   31.00054  31.1%     -    0s
     0     2   31.33257    0   28   45.00000   31.33257  30.4%     -    0s

Cutting planes:
  Learned: 21
  Gomory: 4
  Implied bound: 5
  MIR: 33
  Flow cover: 3

Explored 809 nodes (1680 simplex iterations) in 0.14 seconds (0.05 work units)
Thread count was 16 (of 16 available processors)

Solution count 5: 45 46 49 ... 70

Optimal solution found (tolerance 1.00e-04)
Best objective 4.500000000000e+01, best bound 4.500000000000e+01, gap 0.0000%
Warning: constraint name "precedence between 0,0 to 0,2 if x_[0,0,0,2,3]=0, i.e. 0,2 before 0,0" has a space
Warning: constraint name "precedence between 0,0 to 0,2 if x_[0,0,0,2,3]=0, i.e. 0,2 before 0,0" has a space
Warning: default constraint names used to write mps file
